c File: flat50_3_0.col
c
c SOURCE: Joseph Culberson (joe@cs.ualberta.ca)
c DESCRIPTION: Quasi-random coloring problem
c              generated with flatness = 0
c                             probability = 0.139
c                             known coloring = 3
c                             random seed = 1762
c              Creation Date:  Tue Jun  9 12:17:16 1998
c Maximum degree = 8 Minimum degree = 1
c p edge 50 115
c cnf created by edge2cnf
p cnf 150 545
-1 -2 0
-1 -3 0
-2 -3 0
1 2 3 0
-4 -5 0
-4 -6 0
-5 -6 0
4 5 6 0
-7 -8 0
-7 -9 0
-8 -9 0
7 8 9 0
-10 -11 0
-10 -12 0
-11 -12 0
10 11 12 0
-13 -14 0
-13 -15 0
-14 -15 0
13 14 15 0
-16 -17 0
-16 -18 0
-17 -18 0
16 17 18 0
-19 -20 0
-19 -21 0
-20 -21 0
19 20 21 0
-22 -23 0
-22 -24 0
-23 -24 0
22 23 24 0
-25 -26 0
-25 -27 0
-26 -27 0
25 26 27 0
-28 -29 0
-28 -30 0
-29 -30 0
28 29 30 0
-31 -32 0
-31 -33 0
-32 -33 0
31 32 33 0
-34 -35 0
-34 -36 0
-35 -36 0
34 35 36 0
-37 -38 0
-37 -39 0
-38 -39 0
37 38 39 0
-40 -41 0
-40 -42 0
-41 -42 0
40 41 42 0
-43 -44 0
-43 -45 0
-44 -45 0
43 44 45 0
-46 -47 0
-46 -48 0
-47 -48 0
46 47 48 0
-49 -50 0
-49 -51 0
-50 -51 0
49 50 51 0
-52 -53 0
-52 -54 0
-53 -54 0
52 53 54 0
-55 -56 0
-55 -57 0
-56 -57 0
55 56 57 0
-58 -59 0
-58 -60 0
-59 -60 0
58 59 60 0
-61 -62 0
-61 -63 0
-62 -63 0
61 62 63 0
-64 -65 0
-64 -66 0
-65 -66 0
64 65 66 0
-67 -68 0
-67 -69 0
-68 -69 0
67 68 69 0
-70 -71 0
-70 -72 0
-71 -72 0
70 71 72 0
-73 -74 0
-73 -75 0
-74 -75 0
73 74 75 0
-76 -77 0
-76 -78 0
-77 -78 0
76 77 78 0
-79 -80 0
-79 -81 0
-80 -81 0
79 80 81 0
-82 -83 0
-82 -84 0
-83 -84 0
82 83 84 0
-85 -86 0
-85 -87 0
-86 -87 0
85 86 87 0
-88 -89 0
-88 -90 0
-89 -90 0
88 89 90 0
-91 -92 0
-91 -93 0
-92 -93 0
91 92 93 0
-94 -95 0
-94 -96 0
-95 -96 0
94 95 96 0
-97 -98 0
-97 -99 0
-98 -99 0
97 98 99 0
-100 -101 0
-100 -102 0
-101 -102 0
100 101 102 0
-103 -104 0
-103 -105 0
-104 -105 0
103 104 105 0
-106 -107 0
-106 -108 0
-107 -108 0
106 107 108 0
-109 -110 0
-109 -111 0
-110 -111 0
109 110 111 0
-112 -113 0
-112 -114 0
-113 -114 0
112 113 114 0
-115 -116 0
-115 -117 0
-116 -117 0
115 116 117 0
-118 -119 0
-118 -120 0
-119 -120 0
118 119 120 0
-121 -122 0
-121 -123 0
-122 -123 0
121 122 123 0
-124 -125 0
-124 -126 0
-125 -126 0
124 125 126 0
-127 -128 0
-127 -129 0
-128 -129 0
127 128 129 0
-130 -131 0
-130 -132 0
-131 -132 0
130 131 132 0
-133 -134 0
-133 -135 0
-134 -135 0
133 134 135 0
-136 -137 0
-136 -138 0
-137 -138 0
136 137 138 0
-139 -140 0
-139 -141 0
-140 -141 0
139 140 141 0
-142 -143 0
-142 -144 0
-143 -144 0
142 143 144 0
-145 -146 0
-145 -147 0
-146 -147 0
145 146 147 0
-148 -149 0
-148 -150 0
-149 -150 0
148 149 150 0
-76 -1 0
-77 -2 0
-78 -3 0
-112 -1 0
-113 -2 0
-114 -3 0
-118 -1 0
-119 -2 0
-120 -3 0
-133 -1 0
-134 -2 0
-135 -3 0
-145 -4 0
-146 -5 0
-147 -6 0
-58 -7 0
-59 -8 0
-60 -9 0
-64 -7 0
-65 -8 0
-66 -9 0
-118 -7 0
-119 -8 0
-120 -9 0
-121 -7 0
-122 -8 0
-123 -9 0
-100 -10 0
-101 -11 0
-102 -12 0
-115 -10 0
-116 -11 0
-117 -12 0
-136 -10 0
-137 -11 0
-138 -12 0
-76 -13 0
-77 -14 0
-78 -15 0
-85 -13 0
-86 -14 0
-87 -15 0
-97 -13 0
-98 -14 0
-99 -15 0
-124 -13 0
-125 -14 0
-126 -15 0
-127 -13 0
-128 -14 0
-129 -15 0
-64 -16 0
-65 -17 0
-66 -18 0
-67 -16 0
-68 -17 0
-69 -18 0
-70 -16 0
-71 -17 0
-72 -18 0
-76 -16 0
-77 -17 0
-78 -18 0
-112 -16 0
-113 -17 0
-114 -18 0
-64 -19 0
-65 -20 0
-66 -21 0
-85 -19 0
-86 -20 0
-87 -21 0
-61 -22 0
-62 -23 0
-63 -24 0
-67 -22 0
-68 -23 0
-69 -24 0
-79 -22 0
-80 -23 0
-81 -24 0
-106 -22 0
-107 -23 0
-108 -24 0
-127 -22 0
-128 -23 0
-129 -24 0
-130 -22 0
-131 -23 0
-132 -24 0
-136 -22 0
-137 -23 0
-138 -24 0
-88 -25 0
-89 -26 0
-90 -27 0
-109 -25 0
-110 -26 0
-111 -27 0
-118 -25 0
-119 -26 0
-120 -27 0
-142 -25 0
-143 -26 0
-144 -27 0
-67 -28 0
-68 -29 0
-69 -30 0
-73 -28 0
-74 -29 0
-75 -30 0
-79 -28 0
-80 -29 0
-81 -30 0
-100 -28 0
-101 -29 0
-102 -30 0
-106 -28 0
-107 -29 0
-108 -30 0
-115 -28 0
-116 -29 0
-117 -30 0
-133 -28 0
-134 -29 0
-135 -30 0
-148 -28 0
-149 -29 0
-150 -30 0
-52 -31 0
-53 -32 0
-54 -33 0
-58 -31 0
-59 -32 0
-60 -33 0
-79 -31 0
-80 -32 0
-81 -33 0
-94 -31 0
-95 -32 0
-96 -33 0
-142 -31 0
-143 -32 0
-144 -33 0
-52 -34 0
-53 -35 0
-54 -36 0
-73 -34 0
-74 -35 0
-75 -36 0
-94 -34 0
-95 -35 0
-96 -36 0
-124 -34 0
-125 -35 0
-126 -36 0
-52 -37 0
-53 -38 0
-54 -39 0
-76 -37 0
-77 -38 0
-78 -39 0
-88 -37 0
-89 -38 0
-90 -39 0
-79 -40 0
-80 -41 0
-81 -42 0
-103 -40 0
-104 -41 0
-105 -42 0
-109 -40 0
-110 -41 0
-111 -42 0
-67 -43 0
-68 -44 0
-69 -45 0
-88 -43 0
-89 -44 0
-90 -45 0
-109 -43 0
-110 -44 0
-111 -45 0
-115 -43 0
-116 -44 0
-117 -45 0
-121 -43 0
-122 -44 0
-123 -45 0
-127 -43 0
-128 -44 0
-129 -45 0
-64 -46 0
-65 -47 0
-66 -48 0
-85 -46 0
-86 -47 0
-87 -48 0
-112 -46 0
-113 -47 0
-114 -48 0
-115 -46 0
-116 -47 0
-117 -48 0
-121 -46 0
-122 -47 0
-123 -48 0
-139 -46 0
-140 -47 0
-141 -48 0
-61 -49 0
-62 -50 0
-63 -51 0
-85 -49 0
-86 -50 0
-87 -51 0
-91 -49 0
-92 -50 0
-93 -51 0
-97 -49 0
-98 -50 0
-99 -51 0
-106 -49 0
-107 -50 0
-108 -51 0
-109 -49 0
-110 -50 0
-111 -51 0
-124 -49 0
-125 -50 0
-126 -51 0
-115 -52 0
-116 -53 0
-117 -54 0
-118 -52 0
-119 -53 0
-120 -54 0
-124 -52 0
-125 -53 0
-126 -54 0
-109 -55 0
-110 -56 0
-111 -57 0
-112 -58 0
-113 -59 0
-114 -60 0
-103 -61 0
-104 -62 0
-105 -63 0
-115 -61 0
-116 -62 0
-117 -63 0
-139 -61 0
-140 -62 0
-141 -63 0
-148 -64 0
-149 -65 0
-150 -66 0
-130 -67 0
-131 -68 0
-132 -69 0
-142 -67 0
-143 -68 0
-144 -69 0
-121 -70 0
-122 -71 0
-123 -72 0
-106 -76 0
-107 -77 0
-108 -78 0
-130 -76 0
-131 -77 0
-132 -78 0
-145 -76 0
-146 -77 0
-147 -78 0
-148 -76 0
-149 -77 0
-150 -78 0
-103 -79 0
-104 -80 0
-105 -81 0
-112 -79 0
-113 -80 0
-114 -81 0
-115 -79 0
-116 -80 0
-117 -81 0
-118 -79 0
-119 -80 0
-120 -81 0
-139 -82 0
-140 -83 0
-141 -84 0
-124 -85 0
-125 -86 0
-126 -87 0
-133 -85 0
-134 -86 0
-135 -87 0
-103 -88 0
-104 -89 0
-105 -90 0
-127 -88 0
-128 -89 0
-129 -90 0
-136 -88 0
-137 -89 0
-138 -90 0
-142 -88 0
-143 -89 0
-144 -90 0
-103 -91 0
-104 -92 0
-105 -93 0
-106 -91 0
-107 -92 0
-108 -93 0
-130 -91 0
-131 -92 0
-132 -93 0
-145 -91 0
-146 -92 0
-147 -93 0
-124 -94 0
-125 -95 0
-126 -96 0
-133 -94 0
-134 -95 0
-135 -96 0
-145 -94 0
-146 -95 0
-147 -96 0
-121 -97 0
-122 -98 0
-123 -99 0
-145 -97 0
-146 -98 0
-147 -99 0
-106 -100 0
-107 -101 0
-108 -102 0
-109 -100 0
-110 -101 0
-111 -102 0
